50
5104

689 610
879 465
884 555
788 224
32 581
537 499
64 711
606 628
379 728
628 931
311 455
546 705
500 633
248 188
544 267
762 295
525 821
691 326
653 573
150 61
536 907
859 662
704 821
863 16
927 664
903 404
822 562
927 316
440 151
116 436
929 651
356 746
530 593
205 295
710 712
754 713
964 72
98 633
985 660
184 692
267 1000
363 338
681 677
694 482
176 817
358 116
740 307
630 665
330 8
606 588
